% Auto-generated by scripts/generate_dzn.py
% problem_type   = regex
% instance       = regex_45
% source_json    = instances_json/1_medium_blowup/regex_45.json
% blowup         = 3.076923076923077
% representation = NFA

mode = 1;

var_count = 15;
n_constraints = 2;
Q = 8;
S = 3;
q0 = [1, 1];
F = [{8}, {5}];
weights = [5, 2, 1, 5, 3, 3, 6, 7, 3, 4, 9, 3, 4, 4, 1];
d_dfa = array3d(1..2, 1..8, 1..3, [
  % k = 1
    0, 0, 0,
    0, 0, 0,
    0, 0, 0,
    0, 0, 0,
    0, 0, 0,
    0, 0, 0,
    0, 0, 0,
    0, 0, 0,

  % k = 2
    0, 0, 0,
    0, 0, 0,
    0, 0, 0,
    0, 0, 0,
    0, 0, 0,
    0, 0, 0,
    0, 0, 0,
    0, 0, 0
]);
d_nfa = array3d(1..2, 1..8, 1..3, [
  % k = 1
    {1}, {1}, {1, 2},
    {}, {3}, {},
    {4}, {4}, {4},
    {5}, {5}, {5},
    {6}, {6}, {6},
    {7}, {7}, {7},
    {8}, {8}, {8},
    {}, {}, {},

  % k = 2
    {2}, {1}, {1},
    {3}, {2}, {2},
    {4}, {3}, {3},
    {5}, {4}, {4},
    {}, {5}, {5},
    {}, {}, {},
    {}, {}, {},
    {}, {}, {}
]);
